Welcome to the CBC MILP Solver 
Version: 2.10.3 
Build Date: Dec 15 2019 

command line - /home/cdmonsalvea/AI_OR_Workflow/.venv/lib/python3.10/site-packages/pulp/solverdir/cbc/linux/64/cbc /tmp/6bee7263fd1d421fb5567a0d5d7a1267-pulp.mps -sec 3600 -timeMode elapsed -branch -printingOptions all -solution /tmp/6bee7263fd1d421fb5567a0d5d7a1267-pulp.sol (default strategy 1)
At line 2 NAME          MODEL
At line 3 ROWS
At line 139 COLUMNS
At line 13808 RHS
At line 13943 BOUNDS
At line 14011 ENDATA
Problem MODEL has 134 rows, 4556 columns and 9045 elements
Coin0008I MODEL read with 0 errors
seconds was changed from 1e+100 to 3600
Option for timeMode changed from cpu to elapsed
Continuous objective value is 5.27978e+07 - 0.00 seconds
Cgl0004I processed model has 134 rows, 4556 columns (67 integer (67 of which binary)) and 9045 elements
Cbc0038I Initial state - 67 integers unsatisfied sum - 12.3022
Cbc0038I Pass   1: suminf.    0.22660 (1) obj. 2.27727e+09 iterations 66
Cbc0038I Solution found of 2.2908e+09
Cbc0038I Relaxing continuous gives 1.83328e+09
Cbc0038I Before mini branch and bound, 0 integers at bound fixed and 4356 continuous
Cbc0038I Full problem 134 rows 4556 columns, reduced to 128 rows 188 columns
Cbc0038I Mini branch and bound improved solution from 1.83328e+09 to 2.30742e+08 (0.04 seconds)
Cbc0038I Freeing continuous variables gives a solution of 2.24911e+08
Cbc0038I Round again with cutoff of 2.07699e+08
Cbc0038I Pass   2: suminf.    4.62037 (17) obj. 2.07699e+08 iterations 158
Cbc0038I Pass   3: suminf.    3.59189 (19) obj. 2.07699e+08 iterations 28
Cbc0038I Pass   4: suminf.    0.94848 (6) obj. 2.07699e+08 iterations 59
Cbc0038I Pass   5: suminf.    0.30209 (3) obj. 2.07699e+08 iterations 28
Cbc0038I Pass   6: suminf.    0.07823 (1) obj. 2.07699e+08 iterations 16
Cbc0038I Pass   7: suminf.    0.00000 (0) obj. 2.07699e+08 iterations 11
Cbc0038I Solution found of 2.07699e+08
Cbc0038I Relaxing continuous gives 2.03671e+08
Cbc0038I Before mini branch and bound, 0 integers at bound fixed and 4342 continuous
Cbc0038I Full problem 134 rows 4556 columns, reduced to 110 rows 178 columns
Cbc0038I Mini branch and bound improved solution from 2.03671e+08 to 1.88403e+08 (0.11 seconds)
Cbc0038I Freeing continuous variables gives a solution of 1.83062e+08
Cbc0038I Round again with cutoff of 1.5701e+08
Cbc0038I Pass   8: suminf.    5.84277 (29) obj. 1.5701e+08 iterations 15
Cbc0038I Pass   9: suminf.    5.41261 (29) obj. 1.5701e+08 iterations 6
Cbc0038I Pass  10: suminf.    1.18407 (12) obj. 1.5701e+08 iterations 57
Cbc0038I Pass  11: suminf.    1.01785 (13) obj. 1.5701e+08 iterations 43
Cbc0038I Pass  12: suminf.    1.01785 (13) obj. 1.5701e+08 iterations 0
Cbc0038I Pass  13: suminf.    2.47419 (16) obj. 1.5701e+08 iterations 36
Cbc0038I Pass  14: suminf.    2.47419 (16) obj. 1.5701e+08 iterations 0
Cbc0038I Pass  15: suminf.    4.78231 (21) obj. 1.5701e+08 iterations 36
Cbc0038I Pass  16: suminf.    4.63452 (21) obj. 1.5701e+08 iterations 2
Cbc0038I Pass  17: suminf.    5.34888 (22) obj. 1.5701e+08 iterations 19
Cbc0038I Pass  18: suminf.    5.30442 (23) obj. 1.5701e+08 iterations 3
Cbc0038I Pass  19: suminf.    5.60346 (22) obj. 1.5701e+08 iterations 2
Cbc0038I Pass  20: suminf.    5.59061 (23) obj. 1.5701e+08 iterations 1
Cbc0038I Pass  21: suminf.    5.10004 (21) obj. 1.5701e+08 iterations 8
Cbc0038I Pass  22: suminf.    5.06861 (22) obj. 1.5701e+08 iterations 5
Cbc0038I Pass  23: suminf.    5.22187 (22) obj. 1.5701e+08 iterations 4
Cbc0038I Pass  24: suminf.    5.00752 (22) obj. 1.5701e+08 iterations 5
Cbc0038I Pass  25: suminf.    4.88395 (22) obj. 1.5701e+08 iterations 13
Cbc0038I Pass  26: suminf.    4.88395 (22) obj. 1.5701e+08 iterations 0
Cbc0038I Pass  27: suminf.    4.60388 (21) obj. 1.5701e+08 iterations 10
Cbc0038I Pass  28: suminf.    4.40432 (21) obj. 1.5701e+08 iterations 4
Cbc0038I Pass  29: suminf.    4.60388 (21) obj. 1.5701e+08 iterations 5
Cbc0038I Pass  30: suminf.    4.59199 (21) obj. 1.5701e+08 iterations 29
Cbc0038I Pass  31: suminf.    4.59199 (21) obj. 1.5701e+08 iterations 0
Cbc0038I Pass  32: suminf.    4.97033 (22) obj. 1.5701e+08 iterations 18
Cbc0038I Pass  33: suminf.    4.97033 (22) obj. 1.5701e+08 iterations 0
Cbc0038I Pass  34: suminf.    5.10902 (22) obj. 1.5701e+08 iterations 7
Cbc0038I Pass  35: suminf.    5.10902 (22) obj. 1.5701e+08 iterations 0
Cbc0038I Pass  36: suminf.    4.98544 (22) obj. 1.5701e+08 iterations 11
Cbc0038I Pass  37: suminf.    4.98544 (22) obj. 1.5701e+08 iterations 0
Cbc0038I No solution found this major pass
Cbc0038I Before mini branch and bound, 0 integers at bound fixed and 4363 continuous
Cbc0038I Full problem 134 rows 4556 columns, reduced to 97 rows 147 columns
Cbc0038I Mini branch and bound did not improve solution (0.21 seconds)
Cbc0038I After 0.21 seconds - Feasibility pump exiting with objective of 1.83062e+08 - took 0.18 seconds
Cbc0012I Integer solution of 1.8306249e+08 found by feasibility pump after 0 iterations and 0 nodes (0.22 seconds)
Cbc0012I Integer solution of 1.7870183e+08 found by DiveCoefficient after 166 iterations and 0 nodes (0.41 seconds)
Cbc0031I 87 added rows had average density of 96.321839
Cbc0013I At root node, 87 cuts changed objective from 52797805 to 1.7012223e+08 in 19 passes
Cbc0014I Cut generator 0 (Probing) - 1 row cuts average 67.0 elements, 0 column cuts (0 active)  in 0.057 seconds - new frequency is -100
Cbc0014I Cut generator 1 (Gomory) - 93 row cuts average 109.7 elements, 0 column cuts (0 active)  in 0.007 seconds - new frequency is -100
Cbc0014I Cut generator 2 (Knapsack) - 0 row cuts average 0.0 elements, 0 column cuts (0 active)  in 0.001 seconds - new frequency is -100
Cbc0014I Cut generator 3 (Clique) - 0 row cuts average 0.0 elements, 0 column cuts (0 active)  in 0.000 seconds - new frequency is -100
Cbc0014I Cut generator 4 (MixedIntegerRounding2) - 0 row cuts average 0.0 elements, 0 column cuts (0 active)  in 0.011 seconds - new frequency is -100
Cbc0014I Cut generator 5 (FlowCover) - 0 row cuts average 0.0 elements, 0 column cuts (0 active)  in 0.035 seconds - new frequency is -100
Cbc0014I Cut generator 6 (TwoMirCuts) - 104 row cuts average 105.1 elements, 0 column cuts (0 active)  in 0.008 seconds - new frequency is 1
Cbc0010I After 0 nodes, 1 on tree, 1.7870183e+08 best solution, best possible 1.7012223e+08 (0.41 seconds)
Cbc0012I Integer solution of 1.761849e+08 found by DiveCoefficient after 167 iterations and 1 nodes (0.42 seconds)
Cbc0012I Integer solution of 1.7583661e+08 found by DiveCoefficient after 168 iterations and 2 nodes (0.43 seconds)
Cbc0012I Integer solution of 1.7444351e+08 found by DiveCoefficient after 169 iterations and 3 nodes (0.45 seconds)
Cbc0012I Integer solution of 1.7214268e+08 found by DiveCoefficient after 170 iterations and 4 nodes (0.46 seconds)
Cbc0012I Integer solution of 1.7180011e+08 found by DiveCoefficient after 175 iterations and 5 nodes (0.48 seconds)
Cbc0012I Integer solution of 1.7088714e+08 found by rounding after 189 iterations and 8 nodes (0.50 seconds)
Cbc0001I Search completed - best objective 170887139.5260131, took 238 iterations and 18 nodes (0.52 seconds)
Cbc0032I Strong branching done 104 times (406 iterations), fathomed 1 nodes and fixed 1 variables
Cbc0035I Maximum depth 8, 2 variables fixed on reduced cost
Cuts at root node changed objective from 5.27978e+07 to 1.70122e+08
Probing was tried 19 times and created 1 cuts of which 0 were active after adding rounds of cuts (0.057 seconds)
Gomory was tried 19 times and created 93 cuts of which 0 were active after adding rounds of cuts (0.007 seconds)
Knapsack was tried 19 times and created 0 cuts of which 0 were active after adding rounds of cuts (0.001 seconds)
Clique was tried 19 times and created 0 cuts of which 0 were active after adding rounds of cuts (0.000 seconds)
MixedIntegerRounding2 was tried 19 times and created 0 cuts of which 0 were active after adding rounds of cuts (0.011 seconds)
FlowCover was tried 19 times and created 0 cuts of which 0 were active after adding rounds of cuts (0.035 seconds)
TwoMirCuts was tried 28 times and created 104 cuts of which 0 were active after adding rounds of cuts (0.009 seconds)
ZeroHalf was tried 1 times and created 0 cuts of which 0 were active after adding rounds of cuts (0.000 seconds)

Result - Optimal solution found

Objective value:                170887139.52601311
Enumerated nodes:               18
Total iterations:               238
Time (CPU seconds):             0.51
Time (Wallclock seconds):       0.53

Option for printingOptions changed from normal to all
Total time (CPU seconds):       0.51   (Wallclock seconds):       0.54

